words_hard_train/5110.qaiger
aag 152 20 0 1 132
2
4
8
10
30
32
72
74
102
104
114
142
150
166
196
204
220
250
252
274
304
6 3 5
12 9 11
14 8 10
16 13 15
18 16 4
20 7 19
22 16 3
24 21 23
26 18 2
28 27 15
34 31 33
36 30 32
38 35 37
40 28 39
42 29 38
44 41 43
46 25 44
48 24 45
50 47 49
52 51 31
54 50 30
56 5 11
58 57 15
60 8 11
62 61 6
64 59 63
66 55 65
68 53 67
70 43 37
76 73 75
78 72 74
80 77 79
82 70 81
84 71 80
86 83 85
88 49 86
90 48 87
92 89 91
94 92 72
96 69 95
98 93 73
100 97 99
106 103 105
108 102 104
110 107 109
112 85 79
116 105 115
118 104 114
120 117 119
122 112 121
124 113 120
126 123 125
128 91 126
130 90 127
132 129 131
134 111 133
136 100 135
138 110 132
140 137 139
144 102 142
146 103 143
148 145 147
152 149 151
154 148 150
156 153 155
158 109 157
160 108 156
162 159 161
164 125 119
168 151 167
170 150 166
172 169 171
174 164 173
176 165 172
178 175 177
180 131 178
182 130 179
184 181 183
186 163 185
188 141 187
190 162 184
192 189 191
194 161 155
198 147 196
200 146 197
202 199 201
206 203 205
208 202 204
210 207 209
212 194 211
214 195 210
216 213 215
218 177 171
222 205 221
224 204 220
226 223 225
228 218 227
230 219 226
232 229 231
234 183 232
236 182 233
238 235 237
240 217 239
242 193 241
244 216 238
246 243 245
248 247 236
254 250 252
256 251 253
258 255 257
260 258 201
262 259 200
264 261 263
266 215 209
268 265 267
270 264 266
272 269 271
276 252 275
278 253 274
280 277 279
282 231 225
284 281 283
286 280 282
288 285 287
290 272 288
292 248 290
294 249 291
296 246 237
298 273 289
300 297 299
302 294 301
304 293 303
i0 1 x1[0]
i1 2 y2[0]
i2 1 x1[1]
i3 2 y2[1]
i4 1 x1[2]
i5 2 y2[2]
i6 1 x1[3]
i7 2 y2[3]
i8 2 y1[0]
i9 1 x1[4]
i10 2 y2[4]
i11 2 y1[1]
i12 1 x1[5]
i13 2 y2[5]
i14 2 y1[2]
i15 1 x1[6]
i16 2 y2[6]
i17 2 y1[3]
i18 1 x1[7]
i19 2 y2[7]
o0 bv[0]
c
simplified
  >=
    subtract
      1 x1
      << 4
        2 y1
    add
      1 x1
      2 y2
