words_hard_train/5110.qaiger.qdimacs
p cnf 152 397
a 1 4 36 102 75 15 52 126 0
e 2 3 5 6 7 8 9 10 11 12 13 14 16 17 18 19 20 21 22 23 24 25 26 27 28 29 30 31 32 33 34 35 37 38 39 40 41 42 43 44 45 46 47 48 49 50 51 53 54 55 56 57 58 59 60 61 62 63 64 65 66 67 68 69 70 71 72 73 74 76 77 78 79 80 81 82 83 84 85 86 87 88 89 90 91 92 93 94 95 96 97 98 99 100 101 103 104 105 106 107 108 109 110 111 112 113 114 115 116 117 118 119 120 121 122 123 124 125 127 128 129 130 131 132 133 134 135 136 137 138 139 140 141 142 143 144 145 146 147 148 149 150 151 152 0
1 2 3 0
-1 -3 0
-2 -3 0
4 5 6 0
-4 -6 0
-5 -6 0
-4 -5 7 0
4 -7 0
5 -7 0
6 7 8 0
-6 -8 0
-7 -8 0
-8 -2 9 0
8 -9 0
2 -9 0
3 9 10 0
-3 -10 0
-9 -10 0
-8 1 11 0
8 -11 0
-1 -11 0
10 11 12 0
-10 -12 0
-11 -12 0
-9 -1 13 0
9 -13 0
1 -13 0
13 7 14 0
-13 -14 0
-7 -14 0
15 16 17 0
-15 -17 0
-16 -17 0
-15 -16 18 0
15 -18 0
16 -18 0
17 18 19 0
-17 -19 0
-18 -19 0
-14 19 20 0
14 -20 0
-19 -20 0
14 -19 21 0
-14 -21 0
19 -21 0
20 21 22 0
-20 -22 0
-21 -22 0
12 -22 23 0
-12 -23 0
22 -23 0
-12 22 24 0
12 -24 0
-22 -24 0
23 24 25 0
-23 -25 0
-24 -25 0
25 15 26 0
-25 -26 0
-15 -26 0
-25 -15 27 0
25 -27 0
15 -27 0
2 5 28 0
-2 -28 0
-5 -28 0
28 7 29 0
-28 -29 0
-7 -29 0
-4 5 30 0
4 -30 0
-5 -30 0
30 -3 31 0
-30 -31 0
3 -31 0
29 31 32 0
-29 -32 0
-31 -32 0
27 32 33 0
-27 -33 0
-32 -33 0
26 33 34 0
-26 -34 0
-33 -34 0
21 18 35 0
-21 -35 0
-18 -35 0
36 37 38 0
-36 -38 0
-37 -38 0
-36 -37 39 0
36 -39 0
37 -39 0
38 39 40 0
-38 -40 0
-39 -40 0
-35 40 41 0
35 -41 0
-40 -41 0
35 -40 42 0
-35 -42 0
40 -42 0
41 42 43 0
-41 -43 0
-42 -43 0
24 -43 44 0
-24 -44 0
43 -44 0
-24 43 45 0
24 -45 0
-43 -45 0
44 45 46 0
-44 -46 0
-45 -46 0
-46 -36 47 0
46 -47 0
36 -47 0
34 47 48 0
-34 -48 0
-47 -48 0
46 36 49 0
-46 -49 0
-36 -49 0
48 49 50 0
-48 -50 0
-49 -50 0
51 52 53 0
-51 -53 0
-52 -53 0
-51 -52 54 0
51 -54 0
52 -54 0
53 54 55 0
-53 -55 0
-54 -55 0
42 39 56 0
-42 -56 0
-39 -56 0
52 57 58 0
-52 -58 0
-57 -58 0
-52 -57 59 0
52 -59 0
57 -59 0
58 59 60 0
-58 -60 0
-59 -60 0
-56 60 61 0
56 -61 0
-60 -61 0
56 -60 62 0
-56 -62 0
60 -62 0
61 62 63 0
-61 -63 0
-62 -63 0
45 -63 64 0
-45 -64 0
63 -64 0
-45 63 65 0
45 -65 0
-63 -65 0
64 65 66 0
-64 -66 0
-65 -66 0
55 66 67 0
-55 -67 0
-66 -67 0
-50 67 68 0
50 -68 0
-67 -68 0
-55 -66 69 0
55 -69 0
66 -69 0
68 69 70 0
-68 -70 0
-69 -70 0
-51 -71 72 0
51 -72 0
71 -72 0
51 71 73 0
-51 -73 0
-71 -73 0
72 73 74 0
-72 -74 0
-73 -74 0
74 75 76 0
-74 -76 0
-75 -76 0
-74 -75 77 0
74 -77 0
75 -77 0
76 77 78 0
-76 -78 0
-77 -78 0
54 78 79 0
-54 -79 0
-78 -79 0
-54 -78 80 0
54 -80 0
78 -80 0
79 80 81 0
-79 -81 0
-80 -81 0
62 59 82 0
-62 -82 0
-59 -82 0
75 83 84 0
-75 -84 0
-83 -84 0
-75 -83 85 0
75 -85 0
83 -85 0
84 85 86 0
-84 -86 0
-85 -86 0
-82 86 87 0
82 -87 0
-86 -87 0
82 -86 88 0
-82 -88 0
86 -88 0
87 88 89 0
-87 -89 0
-88 -89 0
65 -89 90 0
-65 -90 0
89 -90 0
-65 89 91 0
65 -91 0
-89 -91 0
90 91 92 0
-90 -92 0
-91 -92 0
81 92 93 0
-81 -93 0
-92 -93 0
70 93 94 0
-70 -94 0
-93 -94 0
-81 -92 95 0
81 -95 0
92 -95 0
94 95 96 0
-94 -96 0
-95 -96 0
80 77 97 0
-80 -97 0
-77 -97 0
73 -98 99 0
-73 -99 0
98 -99 0
-73 98 100 0
73 -100 0
-98 -100 0
99 100 101 0
-99 -101 0
-100 -101 0
101 102 103 0
-101 -103 0
-102 -103 0
-101 -102 104 0
101 -104 0
102 -104 0
103 104 105 0
-103 -105 0
-104 -105 0
-97 105 106 0
97 -106 0
-105 -106 0
97 -105 107 0
-97 -107 0
105 -107 0
106 107 108 0
-106 -108 0
-107 -108 0
88 85 109 0
-88 -109 0
-85 -109 0
102 110 111 0
-102 -111 0
-110 -111 0
-102 -110 112 0
102 -112 0
110 -112 0
111 112 113 0
-111 -113 0
-112 -113 0
-109 113 114 0
109 -114 0
-113 -114 0
109 -113 115 0
-109 -115 0
113 -115 0
114 115 116 0
-114 -116 0
-115 -116 0
91 -116 117 0
-91 -117 0
116 -117 0
-91 116 118 0
91 -118 0
-116 -118 0
117 118 119 0
-117 -119 0
-118 -119 0
108 119 120 0
-108 -120 0
-119 -120 0
96 120 121 0
-96 -121 0
-120 -121 0
-108 -119 122 0
108 -122 0
119 -122 0
121 122 123 0
-121 -123 0
-122 -123 0
123 -118 124 0
-123 -124 0
118 -124 0
-125 -126 127 0
125 -127 0
126 -127 0
125 126 128 0
-125 -128 0
-126 -128 0
127 128 129 0
-127 -129 0
-128 -129 0
-129 100 130 0
129 -130 0
-100 -130 0
129 -100 131 0
-129 -131 0
100 -131 0
130 131 132 0
-130 -132 0
-131 -132 0
107 104 133 0
-107 -133 0
-104 -133 0
132 133 134 0
-132 -134 0
-133 -134 0
-132 -133 135 0
132 -135 0
133 -135 0
134 135 136 0
-134 -136 0
-135 -136 0
-126 137 138 0
126 -138 0
-137 -138 0
126 -137 139 0
-126 -139 0
137 -139 0
138 139 140 0
-138 -140 0
-139 -140 0
115 112 141 0
-115 -141 0
-112 -141 0
140 141 142 0
-140 -142 0
-141 -142 0
-140 -141 143 0
140 -143 0
141 -143 0
142 143 144 0
-142 -144 0
-143 -144 0
-136 -144 145 0
136 -145 0
144 -145 0
-124 -145 146 0
124 -146 0
145 -146 0
124 145 147 0
-124 -147 0
-145 -147 0
-123 118 148 0
123 -148 0
-118 -148 0
136 144 149 0
-136 -149 0
-144 -149 0
148 149 150 0
-148 -150 0
-149 -150 0
-147 150 151 0
147 -151 0
-150 -151 0
146 151 152 0
-146 -152 0
-151 -152 0
152 0
